(set-logic QF_S)
(declare-fun var0 () String)
(declare-fun var1 () String)
(declare-fun var2 () String)
(declare-fun var3 () Int)
(declare-fun var4 () String)
(assert (< (str.to.int var0) (str.indexof var1 var2 var3)))
(assert (str.contains "7" var4))
(assert (str.suffixof var2 var4))
(assert (<= (str.to.int var1) (str.to.int var1)))
(check-sat)